\ Model birth-death-regulation-capture-efficiency
\ LP format - for model browsing. Use MPS format to capture full model detail.
Minimize
  k_reg
Subject To
 R0: k_deg_2 = 1
 B_lb_0,_0: p[0,0] >= 0.2591657142857143
 B_ub_0,_0: p[0,0] <= 0.3016
 B_lb_0,_1: p[0,1] >= 0.1635657142857143
 B_ub_0,_1: p[0,1] <= 0.2026
 B_lb_0,_2: p[0,2] >= 0.0553657142857143
 B_ub_0,_2: p[0,2] <= 0.088
 B_lb_0,_3: p[0,3] >= -0.00383428571428572
 B_ub_0,_3: p[0,3] <= 0.0208
 B_lb_0,_4: p[0,4] >= -0.0152342857142857
 B_ub_0,_4: p[0,4] <= 0.0056
 B_lb_1,_0: p[1,0] >= 0.1655657142857143
 B_ub_1,_0: p[1,0] <= 0.2044
 B_lb_1,_1: p[1,1] >= 0.0553657142857143
 B_ub_1,_1: p[1,1] <= 0.0876
 B_lb_1,_2: p[1,2] >= -0.00683428571428571
 B_ub_1,_2: p[1,2] <= 0.0172
 B_lb_1,_3: p[1,3] >= -0.0158342857142857
 B_ub_1,_3: p[1,3] <= 0.0046
 B_lb_1,_4: p[1,4] >= -0.0174342857142857
 B_ub_1,_4: p[1,4] <= 1
 B_lb_2,_0: p[2,0] >= 0.0455657142857143
 B_ub_2,_0: p[2,0] <= 0.0772
 B_lb_2,_1: p[2,1] >= 3.6571428571428519e-04
 B_ub_2,_1: p[2,1] <= 0.0256
 B_lb_2,_2: p[2,2] >= -0.0164342857142857
 B_ub_2,_2: p[2,2] <= 0.0036
 B_lb_2,_3: p[2,3] >= -0.0174342857142857
 B_ub_2,_3: p[2,3] <= 1
 B_lb_2,_4: p[2,4] >= -0.0174342857142857
 B_ub_2,_4: p[2,4] <= 1
 B_lb_3,_0: p[3,0] >= 0.00176571428571428
 B_ub_3,_0: p[3,0] <= 0.0276
 B_lb_3,_1: p[3,1] >= -0.0160342857142857
 B_ub_3,_1: p[3,1] <= 0.0042
 B_lb_3,_2: p[3,2] >= -0.0174342857142857
 B_ub_3,_2: p[3,2] <= 1
 B_lb_3,_3: p[3,3] >= -0.0174342857142857
 B_ub_3,_3: p[3,3] <= 1
 B_lb_3,_4: p[3,4] >= -0.0174342857142857
 B_ub_3,_4: p[3,4] <= 1
 B_lb_4,_0: p[4,0] >= -0.0154342857142857
 B_ub_4,_0: p[4,0] <= 0.0054
 B_lb_4,_1: p[4,1] >= -0.0174342857142857
 B_ub_4,_1: p[4,1] <= 1
 B_lb_4,_2: p[4,2] >= -0.0174342857142857
 B_ub_4,_2: p[4,2] <= 1
 B_lb_4,_3: p[4,3] >= -0.0174342857142857
 B_ub_4,_3: p[4,3] <= 1
 B_lb_4,_4: p[4,4] >= -0.0174342857142857
 B_ub_4,_4: p[4,4] <= 1
 B_lb_5,_0: p[5,0] >= -0.0174342857142857
 B_ub_5,_0: p[5,0] <= 1
 B_lb_5,_1: p[5,1] >= -0.0174342857142857
 B_ub_5,_1: p[5,1] <= 1
 B_lb_5,_2: p[5,2] >= -0.0174342857142857
 B_ub_5,_2: p[5,2] <= 1
 B_lb_5,_3: p[5,3] >= -0.0174342857142857
 B_ub_5,_3: p[5,3] <= 1
 B_lb_5,_4: p[5,4] >= -0.0174342857142857
 B_ub_5,_4: p[5,4] <= 1
 B_lb_6,_0: p[6,0] >= -0.0174342857142857
 B_ub_6,_0: p[6,0] <= 1
 B_lb_6,_1: p[6,1] >= -0.0174342857142857
 B_ub_6,_1: p[6,1] <= 1
 B_lb_6,_2: p[6,2] >= -0.0174342857142857
 B_ub_6,_2: p[6,2] <= 1
 B_lb_6,_3: p[6,3] >= -0.0174342857142857
 B_ub_6,_3: p[6,3] <= 1
 B_lb_6,_4: p[6,4] >= -0.0174342857142857
 B_ub_6,_4: p[6,4] <= 1
 B_marginal_lb_0: p1[0] >= 0.483
 B_marginal_ub_0: p1[0] <= 0.5964
 B_marginal_lb_1: p1[1] >= 0.1928
 B_marginal_ub_1: p1[1] <= 0.304
 B_marginal_lb_2: p1[2] >= -0.0004
 B_marginal_ub_2: p1[2] <= 0.1018
 B_marginal_lb_3: p1[3] >= -0.064
 B_marginal_ub_3: p1[3] <= 0.031
 B_marginal_lb_4: p1[4] >= -0.0834
 B_marginal_ub_4: p1[4] <= 0.0066
 B_marginal_lb_5: p1[5] >= -0.0862
 B_marginal_ub_5: p1[5] <= 1
 B_marginal_lb_6: p1[6] >= -0.0862
 B_marginal_ub_6: p1[6] <= 1
 B_marginal_lb_0: p2[0] >= 0.44732
 B_marginal_ub_0: p2[0] <= 0.5938
 B_marginal_lb_1: p2[1] >= 0.165915
 B_marginal_ub_1: p2[1] <= 0.3102
 B_marginal_lb_2: p2[2] >= -0.03068
 B_marginal_ub_2: p2[2] <= 0.1048
 B_marginal_lb_3: p2[3] >= -0.10308
 B_marginal_ub_3: p2[3] <= 0.024
 B_marginal_lb_4: p2[4] >= -0.11648
 B_marginal_ub_4: p2[4] <= 0.0066
 frechet_lb_0,_0: - p[0,0] + p1[0] + p2[0] <= 1
 frechet_ub_x1_0: p[0,0] - p1[0] <= 0
 frechet_ub_x2_0: p[0,0] - p2[0] <= 0
 frechet_lb_0,_1: - p[0,1] + p1[0] + p2[1] <= 1
 frechet_ub_x1_0: p[0,1] - p1[0] <= 0
 frechet_ub_x2_1: p[0,1] - p2[1] <= 0
 frechet_lb_0,_2: - p[0,2] + p1[0] + p2[2] <= 1
 frechet_ub_x1_0: p[0,2] - p1[0] <= 0
 frechet_ub_x2_2: p[0,2] - p2[2] <= 0
 frechet_lb_0,_3: - p[0,3] + p1[0] + p2[3] <= 1
 frechet_ub_x1_0: p[0,3] - p1[0] <= 0
 frechet_ub_x2_3: p[0,3] - p2[3] <= 0
 frechet_lb_0,_4: - p[0,4] + p1[0] + p2[4] <= 1
 frechet_ub_x1_0: p[0,4] - p1[0] <= 0
 frechet_ub_x2_4: p[0,4] - p2[4] <= 0
 frechet_lb_1,_0: - p[1,0] + p1[1] + p2[0] <= 1
 frechet_ub_x1_1: p[1,0] - p1[1] <= 0
 frechet_ub_x2_0: p[1,0] - p2[0] <= 0
 frechet_lb_1,_1: - p[1,1] + p1[1] + p2[1] <= 1
 frechet_ub_x1_1: p[1,1] - p1[1] <= 0
 frechet_ub_x2_1: p[1,1] - p2[1] <= 0
 frechet_lb_1,_2: - p[1,2] + p1[1] + p2[2] <= 1
 frechet_ub_x1_1: p[1,2] - p1[1] <= 0
 frechet_ub_x2_2: p[1,2] - p2[2] <= 0
 frechet_lb_1,_3: - p[1,3] + p1[1] + p2[3] <= 1
 frechet_ub_x1_1: p[1,3] - p1[1] <= 0
 frechet_ub_x2_3: p[1,3] - p2[3] <= 0
 frechet_lb_1,_4: - p[1,4] + p1[1] + p2[4] <= 1
 frechet_ub_x1_1: p[1,4] - p1[1] <= 0
 frechet_ub_x2_4: p[1,4] - p2[4] <= 0
 frechet_lb_2,_0: - p[2,0] + p1[2] + p2[0] <= 1
 frechet_ub_x1_2: p[2,0] - p1[2] <= 0
 frechet_ub_x2_0: p[2,0] - p2[0] <= 0
 frechet_lb_2,_1: - p[2,1] + p1[2] + p2[1] <= 1
 frechet_ub_x1_2: p[2,1] - p1[2] <= 0
 frechet_ub_x2_1: p[2,1] - p2[1] <= 0
 frechet_lb_2,_2: - p[2,2] + p1[2] + p2[2] <= 1
 frechet_ub_x1_2: p[2,2] - p1[2] <= 0
 frechet_ub_x2_2: p[2,2] - p2[2] <= 0
 frechet_lb_2,_3: - p[2,3] + p1[2] + p2[3] <= 1
 frechet_ub_x1_2: p[2,3] - p1[2] <= 0
 frechet_ub_x2_3: p[2,3] - p2[3] <= 0
 frechet_lb_2,_4: - p[2,4] + p1[2] + p2[4] <= 1
 frechet_ub_x1_2: p[2,4] - p1[2] <= 0
 frechet_ub_x2_4: p[2,4] - p2[4] <= 0
 frechet_lb_3,_0: - p[3,0] + p1[3] + p2[0] <= 1
 frechet_ub_x1_3: p[3,0] - p1[3] <= 0
 frechet_ub_x2_0: p[3,0] - p2[0] <= 0
 frechet_lb_3,_1: - p[3,1] + p1[3] + p2[1] <= 1
 frechet_ub_x1_3: p[3,1] - p1[3] <= 0
 frechet_ub_x2_1: p[3,1] - p2[1] <= 0
 frechet_lb_3,_2: - p[3,2] + p1[3] + p2[2] <= 1
 frechet_ub_x1_3: p[3,2] - p1[3] <= 0
 frechet_ub_x2_2: p[3,2] - p2[2] <= 0
 frechet_lb_3,_3: - p[3,3] + p1[3] + p2[3] <= 1
 frechet_ub_x1_3: p[3,3] - p1[3] <= 0
 frechet_ub_x2_3: p[3,3] - p2[3] <= 0
 frechet_lb_3,_4: - p[3,4] + p1[3] + p2[4] <= 1
 frechet_ub_x1_3: p[3,4] - p1[3] <= 0
 frechet_ub_x2_4: p[3,4] - p2[4] <= 0
 frechet_lb_4,_0: - p[4,0] + p1[4] + p2[0] <= 1
 frechet_ub_x1_4: p[4,0] - p1[4] <= 0
 frechet_ub_x2_0: p[4,0] - p2[0] <= 0
 frechet_lb_4,_1: - p[4,1] + p1[4] + p2[1] <= 1
 frechet_ub_x1_4: p[4,1] - p1[4] <= 0
 frechet_ub_x2_1: p[4,1] - p2[1] <= 0
 frechet_lb_4,_2: - p[4,2] + p1[4] + p2[2] <= 1
 frechet_ub_x1_4: p[4,2] - p1[4] <= 0
 frechet_ub_x2_2: p[4,2] - p2[2] <= 0
 frechet_lb_4,_3: - p[4,3] + p1[4] + p2[3] <= 1
 frechet_ub_x1_4: p[4,3] - p1[4] <= 0
 frechet_ub_x2_3: p[4,3] - p2[3] <= 0
 frechet_lb_4,_4: - p[4,4] + p1[4] + p2[4] <= 1
 frechet_ub_x1_4: p[4,4] - p1[4] <= 0
 frechet_ub_x2_4: p[4,4] - p2[4] <= 0
 frechet_lb_5,_0: - p[5,0] + p1[5] + p2[0] <= 1
 frechet_ub_x1_5: p[5,0] - p1[5] <= 0
 frechet_ub_x2_0: p[5,0] - p2[0] <= 0
 frechet_lb_5,_1: - p[5,1] + p1[5] + p2[1] <= 1
 frechet_ub_x1_5: p[5,1] - p1[5] <= 0
 frechet_ub_x2_1: p[5,1] - p2[1] <= 0
 frechet_lb_5,_2: - p[5,2] + p1[5] + p2[2] <= 1
 frechet_ub_x1_5: p[5,2] - p1[5] <= 0
 frechet_ub_x2_2: p[5,2] - p2[2] <= 0
 frechet_lb_5,_3: - p[5,3] + p1[5] + p2[3] <= 1
 frechet_ub_x1_5: p[5,3] - p1[5] <= 0
 frechet_ub_x2_3: p[5,3] - p2[3] <= 0
 frechet_lb_5,_4: - p[5,4] + p1[5] + p2[4] <= 1
 frechet_ub_x1_5: p[5,4] - p1[5] <= 0
 frechet_ub_x2_4: p[5,4] - p2[4] <= 0
 frechet_lb_6,_0: - p[6,0] + p1[6] + p2[0] <= 1
 frechet_ub_x1_6: p[6,0] - p1[6] <= 0
 frechet_ub_x2_0: p[6,0] - p2[0] <= 0
 frechet_lb_6,_1: - p[6,1] + p1[6] + p2[1] <= 1
 frechet_ub_x1_6: p[6,1] - p1[6] <= 0
 frechet_ub_x2_1: p[6,1] - p2[1] <= 0
 frechet_lb_6,_2: - p[6,2] + p1[6] + p2[2] <= 1
 frechet_ub_x1_6: p[6,2] - p1[6] <= 0
 frechet_ub_x2_2: p[6,2] - p2[2] <= 0
 frechet_lb_6,_3: - p[6,3] + p1[6] + p2[3] <= 1
 frechet_ub_x1_6: p[6,3] - p1[6] <= 0
 frechet_ub_x2_3: p[6,3] - p2[3] <= 0
 frechet_lb_6,_4: - p[6,4] + p1[6] + p2[4] <= 1
 frechet_ub_x1_6: p[6,4] - p1[6] <= 0
 frechet_ub_x2_4: p[6,4] - p2[4] <= 0
 Distribution: p[0,0] + p[0,1] + p[0,2] + p[0,3] + p[0,4] + p[1,0] + p[1,1]
   + p[1,2] + p[1,3] + p[1,4] + p[2,0] + p[2,1] + p[2,2] + p[2,3] + p[2,4]
   + p[3,0] + p[3,1] + p[3,2] + p[3,3] + p[3,4] + p[4,0] + p[4,1] + p[4,2]
   + p[4,3] + p[4,4] + p[5,0] + p[5,1] + p[5,2] + p[5,3] + p[5,4] + p[6,0]
   + p[6,1] + p[6,2] + p[6,3] + p[6,4] <= 1
 Distribution_x1: p1[0] + p1[1] + p1[2] + p1[3] + p1[4] + p1[5] + p1[6]
   <= 1
 Distribution_x2: p2[0] + p2[1] + p2[2] + p2[3] + p2[4] <= 1
 Equation_0,_0: [ - p[0,0] * k_tx_1 - p[0,0] * k_tx_2 + p[0,1] * k_deg_2
   + p[1,0] * k_deg_1 + p[1,1] * k_reg ] = 0
 Equation_0,_1: [ p[0,0] * k_tx_2 - p[0,1] * k_tx_1 - p[0,1] * k_tx_2
   - p[0,1] * k_deg_2 + 2 p[0,2] * k_deg_2 + p[1,1] * k_deg_1
   + 2 p[1,2] * k_reg ] = 0
 Equation_0,_2: [ p[0,1] * k_tx_2 - p[0,2] * k_tx_1 - p[0,2] * k_tx_2
   - 2 p[0,2] * k_deg_2 + 3 p[0,3] * k_deg_2 + p[1,2] * k_deg_1
   + 3 p[1,3] * k_reg ] = 0
 Equation_0,_3: [ p[0,2] * k_tx_2 - p[0,3] * k_tx_1 - p[0,3] * k_tx_2
   - 3 p[0,3] * k_deg_2 + 4 p[0,4] * k_deg_2 + p[1,3] * k_deg_1
   + 4 p[1,4] * k_reg ] = 0
 Equation_1,_0: [ p[0,0] * k_tx_1 - p[1,0] * k_tx_1 - p[1,0] * k_tx_2
   - p[1,0] * k_deg_1 + p[1,1] * k_deg_2 + 2 p[2,0] * k_deg_1
   + 2 p[2,1] * k_reg ] = 0
 Equation_1,_1: [ p[0,1] * k_tx_1 + p[1,0] * k_tx_2 - p[1,1] * k_tx_1
   - p[1,1] * k_tx_2 - p[1,1] * k_deg_1 - p[1,1] * k_deg_2 - p[1,1] * k_reg
   + 2 p[1,2] * k_deg_2 + 2 p[2,1] * k_deg_1 + 4 p[2,2] * k_reg ] = 0
 Equation_1,_2: [ p[0,2] * k_tx_1 + p[1,1] * k_tx_2 - p[1,2] * k_tx_1
   - p[1,2] * k_tx_2 - p[1,2] * k_deg_1 - 2 p[1,2] * k_deg_2
   - 2 p[1,2] * k_reg + 3 p[1,3] * k_deg_2 + 2 p[2,2] * k_deg_1
   + 6 p[2,3] * k_reg ] = 0
 Equation_1,_3: [ p[0,3] * k_tx_1 + p[1,2] * k_tx_2 - p[1,3] * k_tx_1
   - p[1,3] * k_tx_2 - p[1,3] * k_deg_1 - 3 p[1,3] * k_deg_2
   - 3 p[1,3] * k_reg + 4 p[1,4] * k_deg_2 + 2 p[2,3] * k_deg_1
   + 8 p[2,4] * k_reg ] = 0
 Equation_2,_0: [ p[1,0] * k_tx_1 - p[2,0] * k_tx_1 - p[2,0] * k_tx_2
   - 2 p[2,0] * k_deg_1 + p[2,1] * k_deg_2 + 3 p[3,0] * k_deg_1
   + 3 p[3,1] * k_reg ] = 0
 Equation_2,_1: [ p[1,1] * k_tx_1 + p[2,0] * k_tx_2 - p[2,1] * k_tx_1
   - p[2,1] * k_tx_2 - 2 p[2,1] * k_deg_1 - p[2,1] * k_deg_2
   - 2 p[2,1] * k_reg + 2 p[2,2] * k_deg_2 + 3 p[3,1] * k_deg_1
   + 6 p[3,2] * k_reg ] = 0
 Equation_2,_2: [ p[1,2] * k_tx_1 + p[2,1] * k_tx_2 - p[2,2] * k_tx_1
   - p[2,2] * k_tx_2 - 2 p[2,2] * k_deg_1 - 2 p[2,2] * k_deg_2
   - 4 p[2,2] * k_reg + 3 p[2,3] * k_deg_2 + 3 p[3,2] * k_deg_1
   + 9 p[3,3] * k_reg ] = 0
 Equation_2,_3: [ p[1,3] * k_tx_1 + p[2,2] * k_tx_2 - p[2,3] * k_tx_1
   - p[2,3] * k_tx_2 - 2 p[2,3] * k_deg_1 - 3 p[2,3] * k_deg_2
   - 6 p[2,3] * k_reg + 4 p[2,4] * k_deg_2 + 3 p[3,3] * k_deg_1
   + 12 p[3,4] * k_reg ] = 0
 Equation_3,_0: [ p[2,0] * k_tx_1 - p[3,0] * k_tx_1 - p[3,0] * k_tx_2
   - 3 p[3,0] * k_deg_1 + p[3,1] * k_deg_2 + 4 p[4,0] * k_deg_1
   + 4 p[4,1] * k_reg ] = 0
 Equation_3,_1: [ p[2,1] * k_tx_1 + p[3,0] * k_tx_2 - p[3,1] * k_tx_1
   - p[3,1] * k_tx_2 - 3 p[3,1] * k_deg_1 - p[3,1] * k_deg_2
   - 3 p[3,1] * k_reg + 2 p[3,2] * k_deg_2 + 4 p[4,1] * k_deg_1
   + 8 p[4,2] * k_reg ] = 0
 Equation_3,_2: [ p[2,2] * k_tx_1 + p[3,1] * k_tx_2 - p[3,2] * k_tx_1
   - p[3,2] * k_tx_2 - 3 p[3,2] * k_deg_1 - 2 p[3,2] * k_deg_2
   - 6 p[3,2] * k_reg + 3 p[3,3] * k_deg_2 + 4 p[4,2] * k_deg_1
   + 12 p[4,3] * k_reg ] = 0
 Equation_3,_3: [ p[2,3] * k_tx_1 + p[3,2] * k_tx_2 - p[3,3] * k_tx_1
   - p[3,3] * k_tx_2 - 3 p[3,3] * k_deg_1 - 3 p[3,3] * k_deg_2
   - 9 p[3,3] * k_reg + 4 p[3,4] * k_deg_2 + 4 p[4,3] * k_deg_1
   + 16 p[4,4] * k_reg ] = 0
 Equation_4,_0: [ p[3,0] * k_tx_1 - p[4,0] * k_tx_1 - p[4,0] * k_tx_2
   - 4 p[4,0] * k_deg_1 + p[4,1] * k_deg_2 + 5 p[5,0] * k_deg_1
   + 5 p[5,1] * k_reg ] = 0
 Equation_4,_1: [ p[3,1] * k_tx_1 + p[4,0] * k_tx_2 - p[4,1] * k_tx_1
   - p[4,1] * k_tx_2 - 4 p[4,1] * k_deg_1 - p[4,1] * k_deg_2
   - 4 p[4,1] * k_reg + 2 p[4,2] * k_deg_2 + 5 p[5,1] * k_deg_1
   + 10 p[5,2] * k_reg ] = 0
 Equation_4,_2: [ p[3,2] * k_tx_1 + p[4,1] * k_tx_2 - p[4,2] * k_tx_1
   - p[4,2] * k_tx_2 - 4 p[4,2] * k_deg_1 - 2 p[4,2] * k_deg_2
   - 8 p[4,2] * k_reg + 3 p[4,3] * k_deg_2 + 5 p[5,2] * k_deg_1
   + 15 p[5,3] * k_reg ] = 0
 Equation_4,_3: [ p[3,3] * k_tx_1 + p[4,2] * k_tx_2 - p[4,3] * k_tx_1
   - p[4,3] * k_tx_2 - 4 p[4,3] * k_deg_1 - 3 p[4,3] * k_deg_2
   - 12 p[4,3] * k_reg + 4 p[4,4] * k_deg_2 + 5 p[5,3] * k_deg_1
   + 20 p[5,4] * k_reg ] = 0
 Equation_5,_0: [ p[4,0] * k_tx_1 - p[5,0] * k_tx_1 - p[5,0] * k_tx_2
   - 5 p[5,0] * k_deg_1 + p[5,1] * k_deg_2 + 6 p[6,0] * k_deg_1
   + 6 p[6,1] * k_reg ] = 0
 Equation_5,_1: [ p[4,1] * k_tx_1 + p[5,0] * k_tx_2 - p[5,1] * k_tx_1
   - p[5,1] * k_tx_2 - 5 p[5,1] * k_deg_1 - p[5,1] * k_deg_2
   - 5 p[5,1] * k_reg + 2 p[5,2] * k_deg_2 + 6 p[6,1] * k_deg_1
   + 12 p[6,2] * k_reg ] = 0
 Equation_5,_2: [ p[4,2] * k_tx_1 + p[5,1] * k_tx_2 - p[5,2] * k_tx_1
   - p[5,2] * k_tx_2 - 5 p[5,2] * k_deg_1 - 2 p[5,2] * k_deg_2
   - 10 p[5,2] * k_reg + 3 p[5,3] * k_deg_2 + 6 p[6,2] * k_deg_1
   + 18 p[6,3] * k_reg ] = 0
 Equation_5,_3: [ p[4,3] * k_tx_1 + p[5,2] * k_tx_2 - p[5,3] * k_tx_1
   - p[5,3] * k_tx_2 - 5 p[5,3] * k_deg_1 - 3 p[5,3] * k_deg_2
   - 15 p[5,3] * k_reg + 4 p[5,4] * k_deg_2 + 6 p[6,3] * k_deg_1
   + 24 p[6,4] * k_reg ] = 0
Bounds
 p[0,0] <= 1
 p[0,1] <= 1
 p[0,2] <= 1
 p[0,3] <= 1
 p[0,4] <= 1
 p[1,0] <= 1
 p[1,1] <= 1
 p[1,2] <= 1
 p[1,3] <= 1
 p[1,4] <= 1
 p[2,0] <= 1
 p[2,1] <= 1
 p[2,2] <= 1
 p[2,3] <= 1
 p[2,4] <= 1
 p[3,0] <= 1
 p[3,1] <= 1
 p[3,2] <= 1
 p[3,3] <= 1
 p[3,4] <= 1
 p[4,0] <= 1
 p[4,1] <= 1
 p[4,2] <= 1
 p[4,3] <= 1
 p[4,4] <= 1
 p[5,0] <= 1
 p[5,1] <= 1
 p[5,2] <= 1
 p[5,3] <= 1
 p[5,4] <= 1
 p[6,0] <= 1
 p[6,1] <= 1
 p[6,2] <= 1
 p[6,3] <= 1
 p[6,4] <= 1
 p1[0] <= 1
 p1[1] <= 1
 p1[2] <= 1
 p1[3] <= 1
 p1[4] <= 1
 p1[5] <= 1
 p1[6] <= 1
 p2[0] <= 1
 p2[1] <= 1
 p2[2] <= 1
 p2[3] <= 1
 p2[4] <= 1
 k_tx_1 <= 10
 k_tx_2 <= 10
 k_deg_1 <= 10
 k_deg_2 <= 10
 k_reg <= 10
End
